% demand
num_movements = 25;
loading_factor = [950, 1300, 850, 1500, 1600, 800, 800, 2000, 900, 850, 1250, 1700, 950, 1150, 1750, 1700, 1250, 2000, 1250, 1400, 1100, 1650, 1800, 1050, 1100];
pickup_time = [0, 0, 1, 1, 1, 3, 3, 3, 3, 3, 4, 4, 4, 5, 6, 6, 6, 6, 7, 8, 8, 8, 8, 8, 9];
delivery_time = [1, 1, 2, 3, 2, 4, 4, 4, 4, 4, 6, 6, 6, 6, 7, 7, 7, 7, 8, 11, 9, 11, 11, 11, 11];

% transporter definition
total_capacity = 7000;
num_decks = 3;
capacity = [3000, 1000, 3000];

% ways out of decks
num_ways_out = 1;
paths_out = array3d(decks, ways_out, decks, [
% ways out of deck d1
2, 3, 0, 

% ways out of deck d2
3, 0, 0, 

% ways out of deck d3
0, 0, 0,	

]);

